Selected objective sense:  MINIMIZE
Selected objective  name:  OBJ
Selected RHS        name:  RHS1
CPXPARAM_Preprocessing_Presolve                  0
CPXPARAM_LPMethod                                4
CPXPARAM_Threads                                 1
CPXPARAM_SolutionType                            2
CPXPARAM_TimeLimit                               3600
Tried aggregator 0 times.
DUAL formed by presolve
Reduced presolve eliminated 347 rows and 15857 columns.
Reduced LP has 25243 rows, 7967 columns, and 957234 nonzeros.
Presolve time = 0.40 sec. (307.47 ticks)
Parallel mode: none, using 1 thread for barrier

***NOTE: Found 52 dense columns.

Number of nonzeros in lower triangle of A*A' = 36567
Using Approximate Minimum Degree ordering
Total time for automatic ordering = 0.01 sec. (3.77 ticks)
Summary statistics for Cholesky factor:
  Rows in Factor            = 25295
  Integer space required    = 469883
  Total non-zeros in factor = 1216370
  Total FP ops to factor    = 62390962
 Itn      Primal Obj        Dual Obj  Prim Inf Upper Inf  Dual Inf Inf Ratio
   0  -1.5463205e+07   3.0326287e+06  8.26e+08  6.14e+03  2.68e+06  1.00e+00
   1  -1.7815015e+06   5.4603776e+05  7.91e+07  5.87e+02  7.00e+05  2.05e-03
   2  -2.1109616e+05   8.8591488e+04  7.12e+06  5.29e+01  1.68e+05  1.12e-02
   3  -6.0837329e+04   1.8535479e+04  1.94e+06  1.44e+01  4.16e+04  3.98e-02
   4  -4.2068629e+04   1.2245221e+04  1.34e+06  9.97e+00  2.75e+04  5.60e-02
   5  -1.8951634e+04   7.2727797e+03  5.99e+05  4.45e+00  1.66e+04  1.01e-01
   6  -1.5018963e+04   2.4766583e+03  4.62e+05  3.43e+00  7.82e+03  2.06e-01
   7  -8.7841005e+03   4.0288073e+02  2.64e+05  1.96e+00  2.30e+03  6.64e-01
   8  -4.3740045e+03  -2.8106181e+02  1.25e+05  9.26e-01  4.07e+02  4.47e+00
   9  -2.6975958e+03  -3.4265284e+02  7.21e+04  5.35e-01  1.92e+02  9.68e+00
  10  -2.2538705e+03  -3.6503807e+02  5.82e+04  4.32e-01  1.09e+02  1.67e+01
  11  -1.7760664e+03  -3.7501606e+02  4.33e+04  3.22e-01  5.75e+01  2.96e+01
  12  -9.4480157e+02  -3.8894241e+02  1.73e+04  1.28e-01  1.06e+01  1.18e+02
  13  -6.6766519e+02  -3.9922029e+02  8.19e+03  6.09e-02  6.88e+00  1.74e+02
  14  -6.5621046e+02  -3.9996481e+02  7.82e+03  5.81e-02  6.60e+00  1.81e+02
  15  -6.2264561e+02  -4.0451901e+02  6.67e+03  4.96e-02  5.47e+00  2.14e+02
  16  -5.3939342e+02  -4.0763914e+02  3.82e+03  2.84e-02  4.75e+00  2.43e+02
  17  -5.0627121e+02  -4.2156831e+02  2.54e+03  1.89e-02  2.72e+00  4.30e+02
  18  -4.7483471e+02  -4.2389844e+02  1.38e+03  1.03e-02  2.32e+00  5.06e+02
  19  -4.6490048e+02  -4.2671337e+02  9.65e+02  7.17e-03  1.96e+00  6.09e+02
  20  -4.5135468e+02  -4.3603746e+02  3.92e+02  2.92e-03  7.69e-01  1.85e+03
  21  -4.4710982e+02  -4.3830855e+02  1.87e+02  1.39e-03  5.27e-01  2.78e+03
  22  -4.4607008e+02  -4.3928315e+02  1.35e+02  1.00e-03  4.25e-01  3.52e+03
  23  -4.4509570e+02  -4.3972352e+02  7.98e+01  5.93e-04  3.83e-01  3.96e+03
  24  -4.4445315e+02  -4.4133945e+02  4.23e+01  3.15e-04  2.28e-01  7.16e+03
  25  -4.4404495e+02  -4.4160576e+02  1.91e+01  1.42e-04  2.03e-01  8.18e+03
  26  -4.4394140e+02  -4.4232411e+02  1.23e+01  9.11e-05  1.35e-01  1.31e+04
  27  -4.4386237e+02  -4.4242541e+02  8.72e+00  6.48e-05  1.25e-01  1.43e+04
  28  -4.4376779e+02  -4.4267441e+02  4.45e+00  3.31e-05  9.98e-02  1.85e+04
  29  -4.4373934e+02  -4.4275869e+02  3.33e+00  2.47e-05  9.12e-02  2.05e+04
  30  -4.4371625e+02  -4.4302130e+02  2.54e+00  1.89e-05  6.41e-02  3.00e+04
  31  -4.4368750e+02  -4.4312203e+02  1.61e+00  1.19e-05  5.36e-02  3.67e+04
  32  -4.4365373e+02  -4.4332694e+02  6.67e-01  4.96e-06  3.20e-02  6.67e+04
  33  -4.4363114e+02  -4.4350545e+02  3.08e-01  2.29e-06  1.19e-02  1.95e+05
  34  -4.4361633e+02  -4.4355212e+02  1.30e-01  9.66e-07  6.37e-03  3.77e+05
  35  -4.4361119e+02  -4.4357872e+02  6.58e-02  4.89e-07  3.22e-03  8.07e+05
  36  -4.4360863e+02  -4.4359425e+02  4.05e-02  3.01e-07  1.28e-03  2.14e+06
  37  -4.4360762e+02  -4.4359548e+02  2.93e-02  2.18e-07  1.14e-03  2.42e+06
  38  -4.4360570e+02  -4.4359722e+02  1.32e-02  9.82e-08  9.08e-04  3.05e+06
  39  -4.4360467e+02  -4.4360340e+02  3.82e-03  2.84e-08  1.11e-04  2.52e+07
  40  -4.4360433e+02  -4.4360375e+02  7.35e-04  5.46e-09  6.56e-05  4.24e+07
  41  -4.4360426e+02  -4.4360423e+02  8.07e-05  5.99e-10  3.42e-06  8.15e+08
  42  -4.4360425e+02  -4.4360425e+02  4.08e-06  3.03e-11  2.34e-07  1.61e+10
Barrier time = 3.17 sec. (3960.41 ticks)

Total time on 1 threads = 3.17 sec. (3960.41 ticks)
Solve time: 3.165715411
Barrier iterations: 42
